17	4
37	43	44	33	
0	0	0	0	0	3	2	3	4	
8	8	7	5	2	2	13	17	
6	5	3	9	6	3	6	8	9	
4	8	4	8	8	2	5	17	
4	5	5	3	4	1	16	
250	1	3	2	6	3	7	17	17	
75	3	10	6	8	2	10	17	
25	1	7	10	5	3	11	17	17	
125	4	8	2	10	1	15	
50	8	8	2	4	1	17	
75	6	2	5	9	3	12	14	16	
175	2	8	5	2	1	17	
3	6	3	10	5	1	17	
4	2	10	9	4	2	17	17	
5	8	7	4	7	1	17	
1	6	5	5	4	1	17	
0	0	0	0	0	0	
